jobs  (incl. supersource/sink ):	52
RESOURCES
- renewable                 : 4 R
- nonrenewable              : 2 N
- doubly constrained        : 0 D
************************************************************************
PRECEDENCE RELATIONS:
jobnr.    #modes  #successors   successors
1	1	9		2 3 4 5 6 7 8 10 16 
2	9	9		29 25 22 21 20 19 17 13 12 
3	9	7		33 27 22 17 14 12 9 
4	9	7		33 28 25 23 18 17 14 
5	9	5		28 23 21 17 11 
6	9	7		37 28 27 21 17 15 14 
7	9	4		30 25 21 12 
8	9	6		43 37 28 27 25 17 
9	9	4		38 24 21 18 
10	9	7		43 38 37 30 27 24 22 
11	9	3		37 30 13 
12	9	7		44 38 37 35 32 26 24 
13	9	7		44 43 34 33 31 27 26 
14	9	6		44 38 35 32 26 24 
15	9	6		43 38 32 30 26 24 
16	9	5		44 35 33 26 24 
17	9	5		44 35 32 26 24 
18	9	8		50 44 43 40 37 31 30 29 
19	9	7		44 43 37 35 34 31 26 
20	9	5		43 38 35 30 27 
21	9	5		51 43 35 31 26 
22	9	4		49 34 32 26 
23	9	4		50 38 34 27 
24	9	7		51 50 42 40 36 34 31 
25	9	4		51 50 34 31 
26	9	7		50 48 46 42 40 39 36 
27	9	7		51 49 46 42 40 39 36 
28	9	7		51 49 48 47 46 42 39 
29	9	6		49 48 46 42 39 36 
30	9	5		51 48 46 39 36 
31	9	4		49 47 46 39 
32	9	4		51 50 48 39 
33	9	2		46 38 
34	9	2		48 39 
35	9	3		50 46 45 
36	9	2		47 41 
37	9	2		46 41 
38	9	1		39 
39	9	1		41 
40	9	1		41 
41	9	1		45 
42	9	1		45 
43	9	1		45 
44	9	1		46 
45	9	1		52 
46	9	1		52 
47	9	1		52 
48	9	1		52 
49	9	1		52 
50	9	1		52 
51	9	1		52 
52	1	0		
************************************************************************
REQUESTS/DURATIONS
jobnr.	mode	dur	R1	R2	R3	R4	N1	N2	
------------------------------------------------------------------------
1	1	0	0	0	0	0	0	0	
2	1	5	3	5	4	1	30	28	
	2	6	2	4	4	1	27	27	
	3	13	2	4	4	1	26	24	
	4	15	2	4	3	1	24	24	
	5	16	1	3	3	1	22	23	
	6	17	1	3	2	1	20	21	
	7	27	1	2	2	1	19	18	
	8	29	1	2	1	1	18	17	
	9	30	1	2	1	1	17	17	
3	1	2	2	5	5	5	7	27	
	2	8	2	4	4	4	6	27	
	3	9	2	4	4	4	6	26	
	4	14	2	4	4	4	6	25	
	5	21	2	3	3	4	4	26	
	6	25	2	3	3	4	4	25	
	7	26	2	3	3	4	4	24	
	8	27	2	3	3	4	3	25	
	9	28	2	3	3	4	2	25	
4	1	3	4	4	2	4	4	15	
	2	6	3	4	1	4	4	14	
	3	8	3	3	1	4	4	14	
	4	9	2	3	1	3	4	12	
	5	16	2	3	1	3	4	11	
	6	17	2	2	1	3	4	12	
	7	18	2	1	1	3	4	10	
	8	19	1	1	1	2	4	9	
	9	27	1	1	1	2	4	8	
5	1	5	3	2	3	3	16	9	
	2	6	3	1	3	2	16	9	
	3	7	3	1	3	2	16	8	
	4	8	3	1	3	2	16	7	
	5	10	3	1	3	1	15	7	
	6	20	3	1	2	1	15	6	
	7	23	3	1	2	1	15	5	
	8	26	3	1	2	1	14	5	
	9	27	3	1	2	1	14	4	
6	1	5	5	4	2	3	17	18	
	2	6	4	4	2	3	17	18	
	3	10	3	4	2	3	17	18	
	4	14	3	4	2	3	16	18	
	5	15	3	4	2	3	16	17	
	6	25	2	4	2	3	16	18	
	7	26	1	4	2	3	15	18	
	8	27	1	4	2	3	15	17	
	9	28	1	4	2	3	15	16	
7	1	1	5	4	3	4	17	20	
	2	8	4	4	3	3	16	17	
	3	12	4	4	3	3	15	16	
	4	13	3	4	2	3	14	15	
	5	19	2	4	2	2	14	14	
	6	20	2	4	2	2	13	12	
	7	25	1	4	2	2	13	11	
	8	26	1	4	1	2	11	10	
	9	27	1	4	1	2	11	8	
8	1	1	5	2	4	4	26	17	
	2	3	4	2	4	3	23	16	
	3	5	4	2	4	3	23	15	
	4	7	4	2	4	3	22	15	
	5	13	3	2	4	3	21	14	
	6	20	3	2	3	2	19	12	
	7	28	2	2	3	2	17	12	
	8	29	2	2	3	2	17	11	
	9	30	2	2	3	2	15	10	
9	1	2	3	2	3	5	11	26	
	2	8	3	2	3	4	10	24	
	3	11	3	2	3	4	10	23	
	4	19	3	2	3	4	8	22	
	5	21	3	2	2	3	8	21	
	6	22	3	1	2	3	6	19	
	7	28	3	1	1	2	5	17	
	8	29	3	1	1	2	4	16	
	9	30	3	1	1	2	2	15	
10	1	9	5	5	1	5	26	19	
	2	10	4	4	1	5	22	17	
	3	12	4	4	1	5	22	16	
	4	14	4	4	1	5	20	16	
	5	16	3	4	1	5	18	15	
	6	20	3	4	1	5	17	14	
	7	22	3	4	1	5	13	13	
	8	29	3	4	1	5	13	12	
	9	30	3	4	1	5	11	11	
11	1	4	2	1	5	3	26	22	
	2	7	1	1	4	2	23	21	
	3	9	1	1	4	2	22	20	
	4	12	1	1	4	2	20	20	
	5	16	1	1	3	1	18	19	
	6	21	1	1	3	1	16	17	
	7	24	1	1	3	1	16	16	
	8	27	1	1	2	1	14	15	
	9	28	1	1	2	1	13	15	
12	1	1	4	2	4	3	21	23	
	2	2	4	2	3	3	21	22	
	3	5	4	2	3	3	20	22	
	4	9	4	2	3	3	19	21	
	5	11	4	1	3	3	18	21	
	6	12	3	1	2	3	18	21	
	7	18	3	1	2	3	16	21	
	8	29	3	1	2	3	16	20	
	9	30	3	1	2	3	15	20	
13	1	4	2	5	5	1	27	15	
	2	5	2	5	4	1	27	13	
	3	7	2	5	4	1	27	12	
	4	10	2	5	4	1	27	11	
	5	14	2	5	4	1	27	10	
	6	17	2	5	4	1	26	10	
	7	19	2	5	4	1	26	9	
	8	23	2	5	4	1	26	8	
	9	30	2	5	4	1	26	6	
14	1	6	2	4	1	5	11	29	
	2	10	1	4	1	4	11	24	
	3	13	1	4	1	4	10	21	
	4	15	1	4	1	3	9	21	
	5	19	1	4	1	2	8	18	
	6	25	1	4	1	2	6	16	
	7	27	1	4	1	1	5	10	
	8	28	1	4	1	1	5	9	
	9	30	1	4	1	1	3	7	
15	1	6	4	3	4	4	25	19	
	2	11	4	2	4	3	23	19	
	3	20	4	2	4	3	23	18	
	4	22	4	2	3	3	21	19	
	5	24	4	2	2	3	21	19	
	6	26	4	1	2	2	19	19	
	7	28	4	1	1	2	18	19	
	8	29	4	1	1	2	18	18	
	9	30	4	1	1	2	17	19	
16	1	1	3	4	3	3	19	26	
	2	3	3	4	2	2	17	21	
	3	8	3	3	2	2	17	21	
	4	10	3	3	2	2	15	16	
	5	14	3	2	1	2	14	15	
	6	25	3	2	1	1	14	11	
	7	27	3	1	1	1	13	10	
	8	28	3	1	1	1	11	9	
	9	30	3	1	1	1	11	4	
17	1	5	2	5	1	4	18	4	
	2	7	2	4	1	4	17	5	
	3	8	2	4	1	4	17	4	
	4	8	2	3	1	4	16	5	
	5	9	2	3	1	4	16	4	
	6	12	2	3	1	4	15	4	
	7	17	2	2	1	4	14	4	
	8	18	2	2	1	4	13	4	
	9	20	2	2	1	4	13	3	
18	1	7	3	4	2	3	9	28	
	2	11	3	4	2	3	8	25	
	3	15	3	3	2	3	8	20	
	4	16	2	3	2	3	7	19	
	5	19	2	2	2	3	6	15	
	6	21	2	2	1	3	6	13	
	7	23	1	2	1	3	6	10	
	8	27	1	1	1	3	5	8	
	9	29	1	1	1	3	5	6	
19	1	4	4	5	5	1	17	25	
	2	8	3	4	4	1	14	21	
	3	10	3	4	3	1	14	19	
	4	12	3	4	3	1	13	19	
	5	15	3	4	3	1	10	17	
	6	20	2	4	2	1	10	15	
	7	21	2	4	2	1	9	12	
	8	28	2	4	1	1	6	11	
	9	30	2	4	1	1	5	7	
20	1	1	4	1	1	2	28	25	
	2	4	3	1	1	1	24	22	
	3	11	3	1	1	1	20	22	
	4	15	3	1	1	1	20	19	
	5	16	2	1	1	1	17	19	
	6	18	2	1	1	1	14	18	
	7	21	2	1	1	1	8	17	
	8	24	2	1	1	1	6	15	
	9	26	2	1	1	1	3	14	
21	1	1	2	3	2	5	8	23	
	2	3	2	3	2	4	7	21	
	3	4	2	3	2	4	7	20	
	4	5	2	3	2	4	6	20	
	5	12	2	3	2	4	6	18	
	6	15	2	3	2	4	5	17	
	7	17	2	3	2	4	5	15	
	8	19	2	3	2	4	4	13	
	9	30	2	3	2	4	4	12	
22	1	1	4	4	2	4	27	4	
	2	2	4	4	2	3	25	4	
	3	3	4	4	2	3	24	4	
	4	4	4	4	2	3	20	4	
	5	5	3	4	2	2	20	3	
	6	6	3	4	2	2	17	3	
	7	13	3	4	2	2	14	3	
	8	13	3	4	2	1	12	4	
	9	14	3	4	2	1	12	3	
23	1	1	4	4	3	2	20	16	
	2	2	3	3	2	2	19	15	
	3	4	3	3	2	2	17	14	
	4	5	2	3	2	2	17	12	
	5	6	2	2	2	2	15	12	
	6	10	2	2	1	1	13	10	
	7	18	2	2	1	1	13	8	
	8	19	1	2	1	1	12	7	
	9	27	1	2	1	1	11	7	
24	1	1	3	4	2	5	23	19	
	2	7	3	4	2	4	18	18	
	3	10	3	4	2	4	18	15	
	4	18	3	3	2	4	14	15	
	5	20	3	3	2	3	13	12	
	6	24	3	3	2	3	10	10	
	7	25	3	2	2	3	8	9	
	8	26	3	2	2	2	6	8	
	9	29	3	2	2	2	4	6	
25	1	1	4	3	2	3	9	24	
	2	6	4	3	1	3	8	24	
	3	13	4	3	1	3	8	23	
	4	14	4	3	1	3	8	22	
	5	15	3	2	1	2	8	21	
	6	17	3	2	1	2	8	20	
	7	21	3	2	1	1	8	20	
	8	25	3	1	1	1	8	19	
	9	29	3	1	1	1	8	18	
26	1	5	3	2	3	1	29	13	
	2	9	3	1	3	1	28	13	
	3	11	3	1	3	1	26	11	
	4	14	3	1	3	1	24	10	
	5	15	3	1	3	1	22	10	
	6	16	3	1	3	1	20	8	
	7	18	3	1	3	1	18	7	
	8	22	3	1	3	1	14	7	
	9	26	3	1	3	1	14	6	
27	1	1	3	4	4	3	25	9	
	2	2	3	4	4	3	25	8	
	3	3	3	4	4	3	24	8	
	4	4	3	3	3	3	24	6	
	5	5	3	2	3	3	23	6	
	6	12	3	2	3	3	23	4	
	7	19	3	1	2	3	22	3	
	8	21	3	1	2	3	22	2	
	9	22	3	1	2	3	22	1	
28	1	1	2	3	3	4	26	19	
	2	2	2	3	2	4	26	19	
	3	3	2	3	2	4	24	19	
	4	4	2	3	2	4	22	19	
	5	6	2	3	2	3	20	19	
	6	8	2	2	1	3	18	19	
	7	17	2	2	1	3	16	19	
	8	24	2	2	1	3	14	19	
	9	25	2	2	1	3	12	19	
29	1	1	3	3	2	3	29	26	
	2	10	3	3	2	2	25	24	
	3	11	3	3	2	2	23	22	
	4	14	3	3	2	2	17	22	
	5	18	3	3	2	2	17	20	
	6	19	3	3	2	2	13	20	
	7	23	3	3	2	2	11	19	
	8	24	3	3	2	2	6	17	
	9	26	3	3	2	2	5	17	
30	1	2	4	3	4	4	14	12	
	2	14	4	3	4	4	12	11	
	3	16	4	3	3	4	10	11	
	4	18	4	2	3	4	9	11	
	5	19	4	2	2	4	7	11	
	6	22	4	2	2	3	6	11	
	7	24	4	1	2	3	4	11	
	8	25	4	1	1	3	3	11	
	9	29	4	1	1	3	2	11	
31	1	5	4	3	4	1	11	16	
	2	8	3	2	4	1	11	14	
	3	10	3	2	4	1	9	12	
	4	15	3	2	4	1	9	10	
	5	16	2	2	4	1	6	9	
	6	17	2	1	4	1	6	6	
	7	22	2	1	4	1	4	5	
	8	25	2	1	4	1	4	3	
	9	26	2	1	4	1	2	2	
32	1	3	5	1	2	4	9	8	
	2	5	5	1	2	4	7	7	
	3	10	5	1	2	4	7	6	
	4	10	5	1	2	4	6	8	
	5	11	5	1	2	4	6	7	
	6	14	5	1	2	4	5	6	
	7	21	5	1	2	4	5	5	
	8	26	5	1	2	4	4	6	
	9	29	5	1	2	4	3	6	
33	1	1	3	2	2	4	29	24	
	2	6	3	2	2	3	29	22	
	3	8	3	2	2	3	27	18	
	4	9	3	2	2	3	27	17	
	5	14	2	2	1	2	26	13	
	6	15	2	1	1	2	24	13	
	7	24	2	1	1	2	23	7	
	8	28	2	1	1	2	22	7	
	9	29	2	1	1	2	22	4	
34	1	2	2	1	4	4	8	24	
	2	4	2	1	4	3	7	22	
	3	6	2	1	4	3	6	21	
	4	8	2	1	4	3	6	20	
	5	11	2	1	4	3	5	19	
	6	14	2	1	4	2	5	18	
	7	16	2	1	4	2	4	18	
	8	29	2	1	4	2	2	17	
	9	30	2	1	4	2	2	16	
35	1	4	1	4	2	4	17	20	
	2	5	1	4	1	4	17	19	
	3	6	1	4	1	4	17	18	
	4	7	1	3	1	4	17	16	
	5	10	1	2	1	3	17	15	
	6	22	1	2	1	3	17	14	
	7	23	1	2	1	3	17	13	
	8	24	1	1	1	3	17	13	
	9	28	1	1	1	3	17	12	
36	1	4	4	4	5	2	21	10	
	2	9	4	4	4	1	20	9	
	3	10	4	4	4	1	18	9	
	4	11	3	4	4	1	18	8	
	5	12	2	4	3	1	16	8	
	6	15	2	4	3	1	13	7	
	7	16	1	4	3	1	13	7	
	8	19	1	4	2	1	11	6	
	9	28	1	4	2	1	10	6	
37	1	6	4	5	2	2	10	11	
	2	7	4	4	2	1	9	11	
	3	9	3	4	2	1	8	9	
	4	19	3	4	2	1	6	8	
	5	20	2	4	2	1	6	7	
	6	21	2	4	2	1	5	6	
	7	23	1	4	2	1	4	6	
	8	25	1	4	2	1	3	5	
	9	28	1	4	2	1	3	4	
38	1	2	2	5	4	3	23	26	
	2	7	2	4	4	3	23	24	
	3	11	2	4	4	3	20	22	
	4	13	2	4	4	3	18	18	
	5	19	2	4	4	3	16	17	
	6	20	1	3	3	3	12	14	
	7	24	1	3	3	3	9	13	
	8	27	1	3	3	3	9	12	
	9	28	1	3	3	3	7	10	
39	1	9	4	2	4	5	20	23	
	2	10	4	2	4	4	19	21	
	3	11	4	2	3	4	17	21	
	4	15	3	2	3	3	15	17	
	5	19	3	2	3	2	14	15	
	6	27	3	2	2	2	12	14	
	7	28	2	2	2	1	10	12	
	8	29	2	2	1	1	9	10	
	9	30	2	2	1	1	7	9	
40	1	3	2	4	4	4	26	21	
	2	6	2	4	3	4	23	20	
	3	7	2	4	3	4	20	19	
	4	8	2	3	3	4	17	19	
	5	13	2	3	2	4	16	18	
	6	18	1	3	2	4	13	17	
	7	19	1	3	2	4	9	17	
	8	25	1	2	2	4	7	15	
	9	26	1	2	2	4	3	15	
41	1	1	3	4	3	1	27	13	
	2	5	3	4	2	1	27	11	
	3	6	3	4	2	1	27	10	
	4	9	3	3	2	1	27	11	
	5	10	3	3	2	1	26	10	
	6	13	2	3	2	1	26	10	
	7	14	2	2	2	1	26	9	
	8	18	2	2	2	1	26	8	
	9	28	2	2	2	1	26	7	
42	1	4	3	5	4	4	28	26	
	2	5	3	4	4	3	28	24	
	3	6	3	4	4	3	27	21	
	4	10	3	3	4	3	26	19	
	5	11	3	3	4	3	26	16	
	6	20	3	3	4	3	26	11	
	7	25	3	3	4	3	25	10	
	8	27	3	2	4	3	24	8	
	9	29	3	2	4	3	24	4	
43	1	2	3	5	1	4	4	23	
	2	5	2	4	1	3	3	21	
	3	6	2	4	1	3	3	20	
	4	8	2	4	1	2	3	20	
	5	12	2	4	1	2	3	18	
	6	14	2	4	1	2	3	17	
	7	17	2	4	1	1	3	17	
	8	20	2	4	1	1	3	16	
	9	30	2	4	1	1	3	15	
44	1	5	3	3	1	2	18	24	
	2	6	3	3	1	2	17	24	
	3	9	3	3	1	2	16	24	
	4	17	2	3	1	2	16	23	
	5	19	2	2	1	2	14	22	
	6	26	2	2	1	2	14	21	
	7	27	1	2	1	2	13	22	
	8	28	1	1	1	2	11	21	
	9	30	1	1	1	2	10	21	
45	1	5	4	4	4	3	15	28	
	2	7	4	4	3	2	13	25	
	3	9	4	4	3	2	13	24	
	4	10	4	3	3	2	12	22	
	5	16	4	3	2	2	11	18	
	6	22	4	2	2	2	10	15	
	7	23	4	1	2	2	8	15	
	8	24	4	1	1	2	8	12	
	9	28	4	1	1	2	7	8	
46	1	1	5	2	3	5	22	29	
	2	2	5	2	3	4	19	25	
	3	3	5	2	3	4	19	24	
	4	8	5	2	3	4	17	23	
	5	15	5	2	3	3	16	21	
	6	16	5	2	3	3	14	18	
	7	21	5	2	3	3	13	17	
	8	26	5	2	3	2	12	14	
	9	27	5	2	3	2	11	13	
47	1	2	5	1	4	2	25	21	
	2	11	4	1	4	1	24	18	
	3	16	4	1	4	1	24	17	
	4	19	4	1	4	1	23	15	
	5	20	4	1	4	1	22	13	
	6	21	4	1	4	1	20	13	
	7	23	4	1	4	1	20	11	
	8	24	4	1	4	1	19	9	
	9	30	4	1	4	1	18	8	
48	1	3	5	5	3	5	27	26	
	2	4	4	4	3	4	22	23	
	3	10	4	4	3	4	22	21	
	4	18	4	4	3	4	20	19	
	5	22	3	4	2	4	16	19	
	6	23	3	4	2	3	15	16	
	7	24	3	4	2	3	13	14	
	8	25	3	4	2	3	8	13	
	9	26	3	4	2	3	6	10	
49	1	3	5	3	5	5	8	15	
	2	4	4	3	4	5	7	13	
	3	11	4	3	4	5	6	13	
	4	12	4	3	4	5	6	12	
	5	16	4	3	4	5	5	9	
	6	18	4	3	3	5	3	9	
	7	22	4	3	3	5	3	8	
	8	24	4	3	3	5	2	6	
	9	26	4	3	3	5	1	6	
50	1	1	3	4	4	3	22	1	
	2	8	2	4	4	3	19	2	
	3	9	2	4	4	3	19	1	
	4	10	2	3	3	3	17	1	
	5	11	2	3	2	3	12	1	
	6	19	2	3	2	3	10	1	
	7	22	2	2	2	3	7	1	
	8	23	2	2	1	3	6	1	
	9	25	2	2	1	3	2	1	
51	1	3	4	3	4	4	27	24	
	2	7	3	3	4	3	25	21	
	3	8	3	3	4	3	21	20	
	4	9	3	3	4	3	18	20	
	5	16	2	3	4	2	16	18	
	6	17	2	3	3	2	13	17	
	7	20	2	3	3	2	10	14	
	8	24	1	3	3	1	6	13	
	9	27	1	3	3	1	5	12	
52	1	0	0	0	0	0	0	0	
************************************************************************

 RESOURCE AVAILABILITIES 
	R 1	R 2	R 3	R 4	N 1	N 2
	23	24	19	24	604	627

************************************************************************
